Solver command line: ['/opt/ibm/ILOG/CPLEX_Studio201/cplex/bin/x86-64_linux/cplex']


Welcome to IBM(R) ILOG(R) CPLEX(R) Interactive Optimizer 20.1.0.0
  with Simplex, Mixed Integer & Barrier Optimizers
5725-A06 5725-A29 5724-Y48 5724-Y49 5724-Y54 5724-Y55 5655-Y21
Copyright IBM Corp. 1988, 2020.  All Rights Reserved.

Type 'help' for a list of available commands.
Type 'help' followed by a command name for more
information on commands.

CPLEX> Logfile 'cplex.log' closed.
Logfile 'iteration_instance.log' open.
CPLEX> Problem '/tmp/tmpmfagcvby.pyomo.lp' read.
Read time = 0.03 sec. (1.36 ticks)
CPLEX> Problem name         : /tmp/tmpmfagcvby.pyomo.lp
Objective sense      : Minimize
Variables            :    9991  [Nneg: 36,  Free: 4845,  Binary: 5110]
Objective nonzeros   :       8
Linear constraints   :   11939  [Less: 11204,  Greater: 645,  Equal: 90]
  Nonzeros           :   42965
  RHS nonzeros       :     717

Variables            : Min LB: 0.000000         Max UB: 1.000000       
Objective nonzeros   : Min   : 0.01344000       Max   : 1000.000       
Linear constraints   :
  Nonzeros           : Min   : 6.052000e-13     Max   : 5.253778e+07   
  RHS nonzeros       : Min   : 1.000000         Max   : 250000.0       
CPLEX> Version identifier: 20.1.0.0 | 2020-11-10 | 9bedb6d68
Tried aggregator 3 times.
MIP Presolve eliminated 9013 rows and 8276 columns.
MIP Presolve modified 6497 coefficients.
Aggregator did 42 substitutions.
Reduced MIP has 2884 rows, 1673 columns, and 9016 nonzeros.
Reduced MIP has 972 binaries, 0 generals, 0 SOSs, and 0 indicators.
Presolve time = 0.05 sec. (29.25 ticks)
Found incumbent of value 2006.946321 after 0.07 sec. (35.94 ticks)
Probing fixed 29 vars, tightened 878 bounds.
Probing time = 0.10 sec. (43.82 ticks)
Cover probing fixed 0 vars, tightened 928 bounds.
Tried aggregator 2 times.
Detecting symmetries...
MIP Presolve eliminated 74 rows and 57 columns.
MIP Presolve modified 1785 coefficients.
Aggregator did 6 substitutions.
Reduced MIP has 2804 rows, 1610 columns, and 8765 nonzeros.
Reduced MIP has 943 binaries, 0 generals, 0 SOSs, and 0 indicators.
Presolve time = 0.02 sec. (8.44 ticks)
Probing time = 0.01 sec. (3.22 ticks)
Cover probing fixed 0 vars, tightened 206 bounds.
Clique table members: 6177.
MIP emphasis: balance optimality and feasibility.
MIP search method: dynamic search.
Parallel mode: deterministic, using up to 8 threads.
Root relaxation solution time = 0.07 sec. (81.33 ticks)

        Nodes                                         Cuts/
   Node  Left     Objective  IInf  Best Integer    Best Bound    ItCnt     Gap

*     0+    0                         2006.9463     2000.2369             0.33%
*     0+    0                         2005.3527     2000.2369             0.26%
      0     0     2002.9427   577     2005.3527     2002.9427     1495    0.12%
*     0+    0                         2002.9427     2002.9427             0.00%
      0     0        cutoff           2002.9427     2002.9427     1546    0.00%
Elapsed time = 0.55 sec. (441.15 ticks, tree = 0.01 MB, solutions = 3)

Implied bound cuts applied:  28
Flow cuts applied:  16
Mixed integer rounding cuts applied:  50
Gomory fractional cuts applied:  1

Root node processing (before b&c):
  Real time             =    0.55 sec. (441.60 ticks)
Parallel b&c, 8 threads:
  Real time             =    0.00 sec. (0.00 ticks)
  Sync time (average)   =    0.00 sec.
  Wait time (average)   =    0.00 sec.
                          ------------
Total (root+branch&cut) =    0.55 sec. (441.60 ticks)

Solution pool: 3 solutions saved.

MIP - Integer optimal solution:  Objective =  2.0029427318e+03
Solution time =    0.56 sec.  Iterations = 1546  Nodes = 0
Deterministic time = 441.63 ticks  (792.90 ticks/sec)

CPLEX> Incumbent solution written to file '/tmp/tmpcn5zpldf.cplex.sol'.
CPLEX> 
